NAME /Users/henri/Research/solvers/instances/idol-instances/robust/collection/spp_dkp_Lefebvre_et_al_2026/shortest_path_6_2/uncertainty_sets/discrete_knapsack
ROWS
 N  OBJ
 L  primal_lower
COLUMNS
    MARKER    'MARKER'                 'INTORG'
    y[0,1]     OBJ        0
    y[0,1]     primal_lower -4
    y[0,2]     OBJ        0
    y[0,2]     primal_lower -0.5
    y[0,3]     OBJ        0
    y[0,3]     primal_lower -3.57
    y[0,4]     OBJ        0
    y[0,4]     primal_lower -1.73
    y[0,5]     OBJ        0
    y[0,5]     primal_lower -1.72
    y[1,0]     OBJ        0
    y[1,0]     primal_lower -2.92
    y[1,3]     OBJ        0
    y[1,3]     primal_lower -1.89
    y[2,0]     OBJ        0
    y[2,0]     primal_lower -1.96
    y[2,3]     OBJ        0
    y[2,3]     primal_lower -2.44
    y[2,4]     OBJ        0
    y[2,4]     primal_lower -3.4
    y[2,5]     OBJ        0
    y[2,5]     primal_lower -4.6
    y[3,0]     OBJ        0
    y[3,0]     primal_lower -2.19
    y[3,1]     OBJ        0
    y[3,1]     primal_lower -2.05
    y[3,2]     OBJ        0
    y[3,2]     primal_lower -0.54
    y[3,4]     OBJ        0
    y[3,4]     primal_lower -1.04
    y[3,5]     OBJ        0
    y[3,5]     primal_lower -4.59
    y[4,0]     OBJ        0
    y[4,0]     primal_lower -4.52
    y[4,2]     OBJ        0
    y[4,2]     primal_lower -4.23
    y[4,3]     OBJ        0
    y[4,3]     primal_lower -3.1
    y[4,5]     OBJ        0
    y[4,5]     primal_lower -1.02
    y[5,0]     OBJ        0
    y[5,0]     primal_lower -3.05
    y[5,2]     OBJ        0
    y[5,2]     primal_lower -0.67
    y[5,3]     OBJ        0
    y[5,3]     primal_lower -2.2
    y[5,4]     OBJ        0
    y[5,4]     primal_lower -4.19
    u[0,1]     OBJ        0
    u[0,1]     primal_lower 77
    u[0,2]     OBJ        0
    u[0,2]     primal_lower 11
    u[0,3]     OBJ        0
    u[0,3]     primal_lower 77
    u[0,4]     OBJ        0
    u[0,4]     primal_lower 60
    u[0,5]     OBJ        0
    u[0,5]     primal_lower 43
    u[1,0]     OBJ        0
    u[1,0]     primal_lower 49
    u[1,3]     OBJ        0
    u[1,3]     primal_lower 76
    u[2,0]     OBJ        0
    u[2,0]     primal_lower 61
    u[2,3]     OBJ        0
    u[2,3]     primal_lower 89
    u[2,4]     OBJ        0
    u[2,4]     primal_lower 51
    u[2,5]     OBJ        0
    u[2,5]     primal_lower 39
    u[3,0]     OBJ        0
    u[3,0]     primal_lower 58
    u[3,1]     OBJ        0
    u[3,1]     primal_lower 30
    u[3,2]     OBJ        0
    u[3,2]     primal_lower 7
    u[3,4]     OBJ        0
    u[3,4]     primal_lower 29
    u[3,5]     OBJ        0
    u[3,5]     primal_lower 17
    u[4,0]     OBJ        0
    u[4,0]     primal_lower 74
    u[4,2]     OBJ        0
    u[4,2]     primal_lower 56
    u[4,3]     OBJ        0
    u[4,3]     primal_lower 11
    u[4,5]     OBJ        0
    u[4,5]     primal_lower 28
    u[5,0]     OBJ        0
    u[5,0]     primal_lower 57
    u[5,2]     OBJ        0
    u[5,2]     primal_lower 88
    u[5,3]     OBJ        0
    u[5,3]     primal_lower 80
    u[5,4]     OBJ        0
    u[5,4]     primal_lower 100
    MARKER    'MARKER'                 'INTEND'
RHS
    RHS       primal_lower 115
BOUNDS
 LI BND       y[0,1]     0
 UI BND       y[0,1]     1
 LI BND       y[0,2]     0
 UI BND       y[0,2]     1
 LI BND       y[0,3]     0
 UI BND       y[0,3]     1
 LI BND       y[0,4]     0
 UI BND       y[0,4]     1
 LI BND       y[0,5]     0
 UI BND       y[0,5]     1
 LI BND       y[1,0]     0
 UI BND       y[1,0]     1
 LI BND       y[1,3]     0
 UI BND       y[1,3]     1
 LI BND       y[2,0]     0
 UI BND       y[2,0]     1
 LI BND       y[2,3]     0
 UI BND       y[2,3]     1
 LI BND       y[2,4]     0
 UI BND       y[2,4]     1
 LI BND       y[2,5]     0
 UI BND       y[2,5]     1
 LI BND       y[3,0]     0
 UI BND       y[3,0]     1
 LI BND       y[3,1]     0
 UI BND       y[3,1]     1
 LI BND       y[3,2]     0
 UI BND       y[3,2]     1
 LI BND       y[3,4]     0
 UI BND       y[3,4]     1
 LI BND       y[3,5]     0
 UI BND       y[3,5]     1
 LI BND       y[4,0]     0
 UI BND       y[4,0]     1
 LI BND       y[4,2]     0
 UI BND       y[4,2]     1
 LI BND       y[4,3]     0
 UI BND       y[4,3]     1
 LI BND       y[4,5]     0
 UI BND       y[4,5]     1
 LI BND       y[5,0]     0
 UI BND       y[5,0]     1
 LI BND       y[5,2]     0
 UI BND       y[5,2]     1
 LI BND       y[5,3]     0
 UI BND       y[5,3]     1
 LI BND       y[5,4]     0
 UI BND       y[5,4]     1
 LI BND       u[0,1]     0
 UI BND       u[0,1]     1
 LI BND       u[0,2]     0
 UI BND       u[0,2]     1
 LI BND       u[0,3]     0
 UI BND       u[0,3]     1
 LI BND       u[0,4]     0
 UI BND       u[0,4]     1
 LI BND       u[0,5]     0
 UI BND       u[0,5]     1
 LI BND       u[1,0]     0
 UI BND       u[1,0]     1
 LI BND       u[1,3]     0
 UI BND       u[1,3]     1
 LI BND       u[2,0]     0
 UI BND       u[2,0]     1
 LI BND       u[2,3]     0
 UI BND       u[2,3]     1
 LI BND       u[2,4]     0
 UI BND       u[2,4]     1
 LI BND       u[2,5]     0
 UI BND       u[2,5]     1
 LI BND       u[3,0]     0
 UI BND       u[3,0]     1
 LI BND       u[3,1]     0
 UI BND       u[3,1]     1
 LI BND       u[3,2]     0
 UI BND       u[3,2]     1
 LI BND       u[3,4]     0
 UI BND       u[3,4]     1
 LI BND       u[3,5]     0
 UI BND       u[3,5]     1
 LI BND       u[4,0]     0
 UI BND       u[4,0]     1
 LI BND       u[4,2]     0
 UI BND       u[4,2]     1
 LI BND       u[4,3]     0
 UI BND       u[4,3]     1
 LI BND       u[4,5]     0
 UI BND       u[4,5]     1
 LI BND       u[5,0]     0
 UI BND       u[5,0]     1
 LI BND       u[5,2]     0
 UI BND       u[5,2]     1
 LI BND       u[5,3]     0
 UI BND       u[5,3]     1
 LI BND       u[5,4]     0
 UI BND       u[5,4]     1
ENDATA
